(set-logic QF_UF)
(declare-fun A1 () Bool)
(declare-fun A2 () Bool)
(declare-fun A3 () Bool)
(declare-fun A4 () Bool)
(declare-fun A5 () Bool)
(declare-fun A6 () Bool)
(declare-fun A7 () Bool)
(declare-fun A8 () Bool)
(declare-fun A9 () Bool)
(declare-fun A10 () Bool)
(declare-fun A11 () Bool)
(declare-fun A12 () Bool)
(declare-fun A13 () Bool)
(declare-fun A14 () Bool)
(declare-fun A15 () Bool)
(declare-fun A16 () Bool)
(declare-fun A17 () Bool)
(declare-fun A18 () Bool)
(declare-fun A19 () Bool)
(declare-fun A20 () Bool)
(declare-fun A21 () Bool)
(declare-fun A22 () Bool)
(declare-fun A23 () Bool)
(declare-fun A24 () Bool)
(assert (let ((.def_0 (not A8))) (let ((.def_1 (and .def_0 A9))) (let ((.def_2 (not .def_1))) (let ((.def_3 (not A19))) (let ((.def_4 (or .def_3 A6))) (let ((.def_5 (not .def_4))) (let ((.def_6 (and .def_5 .def_2))) (let ((.def_7 (not A13))) (let ((.def_8 (not A4))) (let ((.def_9 (or .def_8 .def_7))) (let ((.def_10 (not .def_9))) (let ((.def_11 (and A24 A13))) (let ((.def_12 (and .def_11 .def_10))) (let ((.def_13 (not .def_12))) (let ((.def_14 (or .def_13 .def_6))) (let ((.def_15 (or A9 A8))) (let ((.def_16 (not A21))) (let ((.def_17 (not A12))) (let ((.def_18 (and .def_17 .def_16))) (let ((.def_19 (not .def_18))) (let ((.def_20 (and .def_19 .def_15))) (let ((.def_21 (not .def_20))) (let ((.def_22 (not A11))) (let ((.def_23 (and .def_22 A7))) (let ((.def_24 (not A3))) (let ((.def_25 (not A15))) (let ((.def_26 (and .def_25 .def_24))) (let ((.def_27 (not .def_26))) (let ((.def_28 (or .def_27 .def_23))) (let ((.def_29 (not .def_28))) (let ((.def_30 (or .def_29 .def_21))) (let ((.def_31 (or .def_30 .def_14))) (let ((.def_32 (not A18))) (let ((.def_33 (and A22 .def_32))) (let ((.def_34 (or A15 .def_25))) (let ((.def_35 (not .def_34))) (let ((.def_36 (or .def_35 .def_33))) (let ((.def_37 (not .def_36))) (let ((.def_38 (not A5))) (let ((.def_39 (not A23))) (let ((.def_40 (or .def_39 .def_38))) (let ((.def_41 (not .def_40))) (let ((.def_42 (or A19 A1))) (let ((.def_43 (not .def_42))) (let ((.def_44 (or .def_43 .def_41))) (let ((.def_45 (not .def_44))) (let ((.def_46 (or .def_45 .def_37))) (let ((.def_47 (not .def_46))) (let ((.def_48 (not A22))) (let ((.def_49 (and .def_39 .def_48))) (let ((.def_50 (and A11 A24))) (let ((.def_51 (not .def_50))) (let ((.def_52 (and .def_51 .def_49))) (let ((.def_53 (not .def_52))) (let ((.def_54 (not A17))) (let ((.def_55 (or .def_39 .def_54))) (let ((.def_56 (= .def_7 A15))) (let ((.def_57 (and .def_56 .def_55))) (let ((.def_58 (not .def_57))) (let ((.def_59 (= .def_58 .def_53))) (let ((.def_60 (not .def_59))) (let ((.def_61 (and .def_60 .def_47))) (let ((.def_62 (or .def_61 .def_31))) (let ((.def_63 (not A7))) (let ((.def_64 (or .def_63 .def_25))) (let ((.def_65 (not .def_64))) (let ((.def_66 (or A9 A16))) (let ((.def_67 (and .def_66 .def_65))) (let ((.def_68 (and A19 A19))) (let ((.def_69 (not A24))) (let ((.def_70 (and .def_32 .def_69))) (let ((.def_71 (and .def_70 .def_68))) (let ((.def_72 (or .def_71 .def_67))) (let ((.def_73 (not .def_72))) (let ((.def_74 (not A6))) (let ((.def_75 (and .def_74 .def_69))) (let ((.def_76 (not .def_75))) (let ((.def_77 (and A23 .def_0))) (let ((.def_78 (or .def_77 .def_76))) (let ((.def_79 (not .def_78))) (let ((.def_80 (and A19 A3))) (let ((.def_81 (= A20 .def_38))) (let ((.def_82 (and .def_81 .def_80))) (let ((.def_83 (or .def_82 .def_79))) (let ((.def_84 (not .def_83))) (let ((.def_85 (and .def_84 .def_73))) (let ((.def_86 (not A2))) (let ((.def_87 (and A18 .def_86))) (let ((.def_88 (not .def_87))) (let ((.def_89 (and A6 A7))) (let ((.def_90 (or .def_89 .def_88))) (let ((.def_91 (not A10))) (let ((.def_92 (or A18 .def_91))) (let ((.def_93 (or .def_0 .def_48))) (let ((.def_94 (not .def_93))) (let ((.def_95 (or .def_94 .def_92))) (let ((.def_96 (not .def_95))) (let ((.def_97 (and .def_96 .def_90))) (let ((.def_98 (not .def_97))) (let ((.def_99 (not A14))) (let ((.def_100 (and .def_99 .def_91))) (let ((.def_101 (and A23 A5))) (let ((.def_102 (or .def_101 .def_100))) (let ((.def_103 (not .def_102))) (let ((.def_104 (and .def_0 .def_16))) (let ((.def_105 (and A5 .def_38))) (let ((.def_106 (not .def_105))) (let ((.def_107 (or .def_106 .def_104))) (let ((.def_108 (not .def_107))) (let ((.def_109 (and .def_108 .def_103))) (let ((.def_110 (and .def_109 .def_98))) (let ((.def_111 (not .def_110))) (let ((.def_112 (and .def_111 .def_85))) (let ((.def_113 (and .def_112 .def_62))) (let ((.def_114 (not .def_113))) .def_114))))))))))))))))))))))))))))))))))))))))))))))))))))))))))))))))))))))))))))))))))))))))))))))))))))))))))))))))))))
(check-sat)
